5485952
213,142,191,86,165,150,144,121,195,42,70,20,186,95,167,155,149,166,187,139,21,185,87,43,72,29,180,75,125,164,123,159,182,77,168,154,5,9,38,212,89,199,137,26,210,41,76,65,10,172,158,22,134,202,206,6,80,115,178,196,74,14,98,53,99,136,67,1,216,229,32,175,143,25,201,174,127,46,55,218,222,220,17,52,198,103,50,12,177,184,47,183,0,148,192,68,133,188,73,92,122,225,116,209,156,207,59,61,132,36,138,179,211,173,56,3,107,2,79,78,157,135,131,147,200,145,118,153,30,119,60,224,130,203,190,13,102,19,228,129,71,128,120,215,105,208,163,161,151,146,113,197,39,111,88,69,15,82,219,194,4,64,189,44,33,140,101,94,7,85,63,96,226,117,97,221,24,45,223,114,84,126,49,93,81,100,162,48,124,171,34,18,62,11,169,58,112,109,40,23,104,91,141,217,31,37,181,35,110,176,193,160,54,108,170,227,214,205,90,28,106,8,66,204,51,152,27,83,16,57